%%%mzn-stat: initTime=0.188333088
%%%mzn-stat: objective=239
%%%mzn-stat: nodes=616
%%%mzn-stat: restarts=0
%%%mzn-stat: peakDepth=291
%%%mzn-stat: solveTime=0.040107617
%%%mzn-stat: variables=1113
%%%mzn-stat: propagators=807
%%%mzn-stat: failures=246
%%%mzn-stat: propagations=119611
%%%mzn-stat: nogoods=246
%%%mzn-stat: AverageConflictSize=2.434959349593496
%%%mzn-stat: NumUnitNogoodsLearned=238
%%%mzn-stat: AverageLearnedNogoodLength=2.4715447154471546
%%%mzn-stat: AverageBacktrackAmount=0
%%%mzn-stat: AverageLbd=1.613821138211382
%%%mzn-stat-end
maxleg = 239;
succ = array1d(1..50,[4, 20, 5, 38, 15, 47, 45, 40, 6, 18, 32, 34, 12, 27, 22, 25, 8, 39, 14, 41, 9, 2, 7, 21, 43, 42, 26, 13, 50, 28, 48, 3, 46, 19, 33, 44, 36, 11, 24, 23, 30, 35, 10, 16, 1, 31, 17, 29, 37, 49]);
% time elapsed: 12.20 s
----------
==========
% time elapsed: 12.20 s
%%%mzn-stat: initTime=0.188333088
%%%mzn-stat: objective=239
%%%mzn-stat: nodes=616
%%%mzn-stat: restarts=0
%%%mzn-stat: peakDepth=291
%%%mzn-stat: solveTime=0.040110783
%%%mzn-stat: variables=1113
%%%mzn-stat: propagators=807
%%%mzn-stat: failures=246
%%%mzn-stat: propagations=119611
%%%mzn-stat: nogoods=246
%%%mzn-stat: AverageConflictSize=2.434959349593496
%%%mzn-stat: NumUnitNogoodsLearned=238
%%%mzn-stat: AverageLearnedNogoodLength=2.4715447154471546
%%%mzn-stat: AverageBacktrackAmount=0
%%%mzn-stat: AverageLbd=1.613821138211382
%%%mzn-stat-end
